0001 5
0002 3
0003 8
0004 15
0005 1
0006 1
0007 1
0008 7
0009 1
0010 16
0011 18
0012 11
0013 12
0014 5
0015 4
0016 5
0017 10
0018 10
0019 14
0020 13
0021 3
0022 17
0023 8
0024 4
0025 1
0026 1
0027 18
0028 16
0029 16
0030 6
0031 9
0032 7
0033 2
0034 12
0035 17
0036 9
0037 4
0038 1
0039 7
0040 10
0041 16
0042 5
0043 1
0044 3
0045 15
0046 6
0047 10
0048 8
0049 14
0050 17
0051 7
0052 7
0053 18
0054 15
0055 11
0056 13
0057 16
0058 4
0059 8
0060 10
0061 1
0062 14
0063 11
0064 9
0065 18
0066 15
0067 4
0068 5
0069 18
0070 2
0071 12
0072 13
0073 3
0074 12
0075 13
0076 8
0077 10
0078 17
0079 6
0080 1
0081 5
